33 34
23
3 3 0 29
3 4 26 0
3 5 9 0
6 3 3 31
3 7 3 0
3 8 30 26
3 9 9 25
3 10 26 4
3 13 30 13
3 14 0 15
3 15 0 0
3 17 9 5
3 24 3 7
3 30 6 0
3 33 23 0
4 3 29 0
4 4 19 0
4 6 26 14
4 10 29 3
4 12 19 22
4 14 26 20
4 17 19 4
7 33 12 0
